\ Model QCP
\ LP format - for model browsing. Use MPS format to capture full model detail.
Minimize
  z + y
Subject To
 Cut_0: z + [ ] >= 960
 Cut_1: z + [ 0.631578947368421 y ^2 ] >= 1057.263157894737
 Cut_2: z + [ 0.631578947368421 y ^2 ] >= 1057.263157894737
 Cut_3: z + [ 0.631578947368421 y ^2 ] >= 1057.263157894737
 Cut_4: z + [ 0.631578947368421 y ^2 ] >= 1057.263157894737
 Cut_5: z + [ 0.631578947368421 y ^2 ] >= 1057.263157894737
 Cut_6: z + [ 0.631578947368421 y ^2 ] >= 1057.263157894737
 Cut_7: z + [ 0.631578947368421 y ^2 ] >= 1057.263157894737
 Cut_8: z + [ 0.631578947368421 y ^2 ] >= 1057.263157894737
 Cut_9: z + [ 0.631578947368421 y ^2 ] >= 1057.263157894737
Bounds
 z = 960
 y = 12.40967364599086
End
